sat
(model
(declare-sort BoundSet 0)
; cardinality of UnboundSet is 2
(declare-sort UnboundSet 0)
; rep: @uc_UnboundSet_0
; rep: @uc_UnboundSet_1
(define-fun a () UnboundSet @uc_UnboundSet_0)
(define-fun b () UnboundSet @uc_UnboundSet_1)
(define-fun c () UnboundSet @uc_UnboundSet_0)
(define-fun IsBlonde ((BOUND_VARIABLE_310 UnboundSet)) Bool true)
(define-fun IsCrossedTheRoad ((BOUND_VARIABLE_310 UnboundSet)) Bool true)
(define-fun IsThere ((BOUND_VARIABLE_310 UnboundSet)) Bool false)
(define-fun IsShoeSale ((BOUND_VARIABLE_310 UnboundSet)) Bool false)
)
